(set-logic HORN)
(declare-datatypes ((Nat_1 0)) (((Z_1 ) (S_1 (unS_0 Nat_1)))))
(declare-fun diseqNat_0 (Nat_1 Nat_1) Bool)
(declare-fun unS_1 (Nat_1 Nat_1) Bool)
(declare-fun isZ_0 (Nat_1) Bool)
(declare-fun isS_0 (Nat_1) Bool)
(assert (forall ((x_10 Nat_1) (x_9 Nat_1))
	(=> (= x_10 (S_1 x_9))
	    (unS_1 x_9 x_10))))
(assert (isZ_0 Z_1))
(assert (forall ((x_11 Nat_1))
	(isS_0 (S_1 x_11))))
(assert (forall ((x_12 Nat_1))
	(diseqNat_0 Z_1 (S_1 x_12))))
(assert (forall ((x_13 Nat_1))
	(diseqNat_0 (S_1 x_13) Z_1)))
(assert (forall ((x_14 Nat_1) (x_15 Nat_1))
	(=> (diseqNat_0 x_14 x_15)
	    (diseqNat_0 (S_1 x_14) (S_1 x_15)))))
(declare-fun add_0 (Nat_1 Nat_1 Nat_1) Bool)
(declare-fun minus_0 (Nat_1 Nat_1 Nat_1) Bool)
(declare-fun le_0 (Nat_1 Nat_1) Bool)
(declare-fun ge_0 (Nat_1 Nat_1) Bool)
(declare-fun lt_0 (Nat_1 Nat_1) Bool)
(declare-fun gt_0 (Nat_1 Nat_1) Bool)
(declare-fun mult_0 (Nat_1 Nat_1 Nat_1) Bool)
(declare-fun div_0 (Nat_1 Nat_1 Nat_1) Bool)
(declare-fun mod_0 (Nat_1 Nat_1 Nat_1) Bool)
(assert (forall ((y_2 Nat_1))
	(add_0 y_2 Z_1 y_2)))
(assert (forall ((x_7 Nat_1) (y_2 Nat_1) (r_0 Nat_1))
	(=> (add_0 r_0 x_7 y_2)
	    (add_0 (S_1 r_0) (S_1 x_7) y_2))))
(assert (forall ((y_2 Nat_1))
	(minus_0 Z_1 Z_1 y_2)))
(assert (forall ((x_7 Nat_1) (y_2 Nat_1) (r_0 Nat_1))
	(=> (minus_0 r_0 x_7 y_2)
	    (minus_0 (S_1 r_0) (S_1 x_7) y_2))))
(assert (forall ((y_2 Nat_1))
	(le_0 Z_1 y_2)))
(assert (forall ((x_7 Nat_1) (y_2 Nat_1))
	(=> (le_0 x_7 y_2)
	    (le_0 (S_1 x_7) (S_1 y_2)))))
(assert (forall ((y_2 Nat_1))
	(ge_0 y_2 Z_1)))
(assert (forall ((x_7 Nat_1) (y_2 Nat_1))
	(=> (ge_0 x_7 y_2)
	    (ge_0 (S_1 x_7) (S_1 y_2)))))
(assert (forall ((y_2 Nat_1))
	(lt_0 Z_1 (S_1 y_2))))
(assert (forall ((x_7 Nat_1) (y_2 Nat_1))
	(=> (lt_0 x_7 y_2)
	    (lt_0 (S_1 x_7) (S_1 y_2)))))
(assert (forall ((y_2 Nat_1))
	(gt_0 (S_1 y_2) Z_1)))
(assert (forall ((x_7 Nat_1) (y_2 Nat_1))
	(=> (gt_0 x_7 y_2)
	    (gt_0 (S_1 x_7) (S_1 y_2)))))
(assert (forall ((y_2 Nat_1))
	(mult_0 Z_1 Z_1 y_2)))
(assert (forall ((x_7 Nat_1) (y_2 Nat_1) (r_0 Nat_1) (z_1 Nat_1))
	(=>	(and (mult_0 r_0 x_7 y_2)
			(add_0 z_1 r_0 y_2))
		(mult_0 z_1 (S_1 x_7) y_2))))
(assert (forall ((x_7 Nat_1) (y_2 Nat_1))
	(=> (lt_0 x_7 y_2)
	    (div_0 Z_1 x_7 y_2))))
(assert (forall ((x_7 Nat_1) (y_2 Nat_1) (r_0 Nat_1) (z_1 Nat_1))
	(=>	(and (ge_0 x_7 y_2)
			(minus_0 z_1 x_7 y_2)
			(div_0 r_0 z_1 y_2))
		(div_0 (S_1 r_0) x_7 y_2))))
(assert (forall ((x_7 Nat_1) (y_2 Nat_1))
	(=> (lt_0 x_7 y_2)
	    (mod_0 x_7 x_7 y_2))))
(assert (forall ((x_7 Nat_1) (y_2 Nat_1) (r_0 Nat_1) (z_1 Nat_1))
	(=>	(and (ge_0 x_7 y_2)
			(minus_0 z_1 x_7 y_2)
			(mod_0 r_0 z_1 y_2))
		(mod_0 r_0 x_7 y_2))))
(declare-datatypes ((Nat_0 0)) (((Z_0 ) (S_0 (projS_0 Nat_0)))))
(declare-fun diseqNat_1 (Nat_0 Nat_0) Bool)
(declare-fun projS_1 (Nat_0 Nat_0) Bool)
(declare-fun isZ_1 (Nat_0) Bool)
(declare-fun isS_1 (Nat_0) Bool)
(assert (forall ((x_18 Nat_0) (x_17 Nat_0))
	(=> (= x_18 (S_0 x_17))
	    (projS_1 x_17 x_18))))
(assert (isZ_1 Z_0))
(assert (forall ((x_19 Nat_0))
	(isS_1 (S_0 x_19))))
(assert (forall ((x_20 Nat_0))
	(diseqNat_1 Z_0 (S_0 x_20))))
(assert (forall ((x_21 Nat_0))
	(diseqNat_1 (S_0 x_21) Z_0)))
(assert (forall ((x_22 Nat_0) (x_23 Nat_0))
	(=> (diseqNat_1 x_22 x_23)
	    (diseqNat_1 (S_0 x_22) (S_0 x_23)))))
(declare-fun min_0 (Nat_0 Nat_0 Nat_0) Bool)
(assert (forall ((x_0 Nat_0) (y_0 Nat_0) (z_0 Nat_0) (y_1 Nat_0) (x_1 Nat_0) (x_2 Nat_0))
	(=>	(and (= x_1 (S_0 x_2))
			(min_0 x_2 z_0 y_1)
			(= x_0 (S_0 z_0))
			(= y_0 (S_0 y_1)))
		(min_0 x_1 x_0 y_0))))
(assert (forall ((x_0 Nat_0) (y_0 Nat_0) (z_0 Nat_0) (x_3 Nat_0))
	(=>	(and (= x_3 Z_0)
			(= x_0 (S_0 z_0))
			(= y_0 Z_0))
		(min_0 x_3 x_0 y_0))))
(assert (forall ((x_0 Nat_0) (y_0 Nat_0) (x_4 Nat_0))
	(=>	(and (= x_4 Z_0)
			(= x_0 Z_0))
		(min_0 x_4 x_0 y_0))))
(assert (forall ((a_0 Nat_0) (b_0 Nat_0) (x_5 Nat_0) (x_6 Nat_0))
	(=>	(and (diseqNat_1 x_5 x_6)
			(min_0 x_5 a_0 b_0)
			(min_0 x_6 b_0 a_0))
		false)))
(check-sat)
